
-11.3
-11.2
-11.1
-10.9
-10.9
-10.6
-10.4
-10.3
-10.3
-10.2
-10.2
-9.9
-9.6
-9.5
-9.5
-9.5
-9.5
-9.5
-9.4
-9.4
-9.4
-9.4
-9.4
-9.4
-9.4
-9.4
-9.4
-9.4
-9.4
-9.4
-9.4
-9.4
-9.4
-9.4
-9.4
-9.4
-9.4
-9.4
-9.4
-11.8
-11.3
-11.0
-10.7
-10.5
-10.5
-10.5
-10.2
-10.1
-9.9
-9.9
-9.7
-9.7
-9.7
-9.5
-9.5
-9.3
-9.3
-9.3
-9.3
-9.3
-11.4
-11.3
-11.1
-11.0
-10.9
-10.8
-10.8
-10.8
-10.5
-10.3
-10.1
-10.1
-10.1
-10.1
-10.1
-10.1
-10.1
-10.1
-9.8
-9.8
-9.8
-9.8
-9.8
-9.8
-9.8
-9.8
-9.8
-9.8
-9.8
-9.8
-9.8
-9.8
-9.8
-9.8
-9.8
-9.8
-9.8
-9.8
-9.8